Si ! Bulk Si, Supercell 
   5.430000000
   1.000000000   0.000000000   0.000000000
   0.000000000   1.000000000   0.000000000
   0.000000000   0.000000000   1.000000000
Si
  8
Direct
   0.000000000   0.000000000   0.000000000
   0.000000000   0.500000000   0.500000000
   0.500000000   0.500000000   0.000000000
   0.500000000   0.000000000   0.500000000
   0.750000000   0.250000000   0.750000000
   0.250000000   0.250000000   0.250000000
   0.250000000   0.750000000   0.750000000
   0.750000000   0.750000000   0.250000000
