Si-Ge ! Bulk Si, Supercell 
   5.430000000
   1.000000000   0.000000000   0.000000000
   0.000000000   1.000000000   0.000000000
   0.000000000   0.000000000   1.000000000
Ge Si
4  4
Direct
   0.000000000   0.000000000   0.000000000
   0.500000000   0.500000000   0.000000000
   0.500000000   0.000000000   0.500000000
   0.250000000   0.750000000   0.750000000
   0.000000000   0.500000000   0.500000000
   0.750000000   0.250000000   0.750000000
   0.250000000   0.250000000   0.250000000
   0.750000000   0.750000000   0.250000000
